; benchmark generated from python API
(set-info :status unknown)
(declare-fun x4 () Real)
(declare-fun x3 () Real)
(declare-fun bool.b17 () Bool)
(declare-fun bool.b18 () Bool)
(declare-fun bool.b19 () Bool)
(declare-fun bool.b24 () Bool)
(declare-fun bool.b20 () Bool)
(declare-fun bool.b23 () Bool)
(declare-fun bool.b22 () Bool)
(declare-fun bool.b21 () Bool)
(assert
 (forall ((?lambda Real) )(let ((?x12267 (* 40.0 ?lambda)))
 (let ((?x10042 (+ x4 ?x12267)))
 (let ((?x23943 (* (/ (- 1.0) 40.0) ?x10042)))
 (let ((?x28218 (+ x3 (* 1.0 ?lambda))))
 (let ((?x26295 (- 1.0)))
 (let ((?x1188 (* ?x26295 ?x28218)))
 (let (($x8037 (<= (+ ?x1188 ?x23943) (/ (- 623.0) 4.0))))
 (let ((?x7850 (* ?x26295 ?x10042)))
 (let (($x10027 (<= ?x7850 (- 4910.0))))
 (let (($x18135 (not $x10027)))
 (let (($x10619 (<= ?x7850 (- 4500.0))))
 (let ((?x10289 (* 1.0 ?x28218)))
 (let ((?x21994 (+ ?x10289 (* (/ 3.0 20.0) ?x10042))))
 (let (($x20383 (<= ?x21994 1200.0)))
 (let (($x13186 (<= ?x10289 40.0)))
 (let (($x21387 (and $x13186 $x20383)))
 (let (($x33937 (<= (+ ?x1188 (* (/ ?x26295 60.0) ?x10042)) (/ (- 731.0) 6.0))))
 (let (($x24002 (<= ?x10289 45.0)))
 (let (($x4491 (and (not (and $x24002 (and $x18135 $x33937))) (not (and $x21387 (and $x10619 (and $x18135 $x8037)))))))
 (let (($x5470 (<= (+ ?x1188 (* (/ ?x26295 20.0) ?x10042)) (/ (- 581.0) 2.0))))
 (let (($x16105 (and (not (and $x18135 $x5470)) $x4491)))
 (let (($x870 (<= ?x10289 0.0)))
 (let (($x3083 (not $x870)))
 (let (($x16051 (not bool.b17)))
 (let (($x26349 (and $x16051 (not (and (not (and $x870 (<= ?x21994 723.0))) (not (and $x3083 $x16105)))))))
 (let (($x7081 (not (and bool.b17 (not (and $x870 (not (<= ?x21994 723.0))))))))
 (let (($x5418 (not bool.b18)))
 (let (($x18741 (and (not (and bool.b18 (not (and $x870 (not (<= ?x21994 723.0)))))) (not (and $x5418 (not (and $x7081 (not $x26349))))))))
 (let (($x1596 (<= (+ ?x10289 (* (/ 1.0 20.0) ?x10042)) 241.0)))
 (let (($x9859 (not $x1596)))
 (let (($x19882 (<= (+ ?x10289 (* (/ 1.0 15.0) ?x10042)) (/ 964.0 3.0))))
 (let (($x3257 (not (and $x19882 $x9859))))
 (let (($x22754 (not (and $x20383 (not (<= ?x21994 723.0))))))
 (let (($x3470 (<= ?x10289 20.0)))
 (let ((?x33990 (+ ?x10289 (* (/ 3.0 40.0) ?x10042))))
 (let (($x31621 (<= ?x33990 (/ 743.0 2.0))))
 (let (($x12967 (not $x31621)))
 (let (($x31775 (<= ?x33990 359.0)))
 (let (($x8191 (not $x31775)))
 (let (($x9610 (not (and (not $x13186) $x31775))))
 (let (($x21083 (<= ?x33990 610.0)))
 (let (($x1407 (<= ?x33990 (/ 703.0 2.0))))
 (let (($x16632 (not $x1407)))
 (let (($x6498 (and $x16632 (and $x21083 (and $x9610 (not (and $x8191 (not (and $x12967 $x21387)))))))))
 (let (($x18857 (not $x6498)))
 (let (($x11548 (and (<= (+ ?x10289 (* (/ 1.0 60.0) ?x10042)) (/ 400.0 3.0)) (and (not (<= ?x10289 33.0)) $x33937))))
 (let (($x5671 (not $x13186)))
 (let (($x24213 (and $x5671 (not $x11548))))
 (let (($x15110 (not (and (not $x24002) (not $x5470)))))
 (let (($x23330 (and $x13186 (not (and (not (<= ?x10289 33.0)) (and (<= ?x1188 (- 30.0)) $x8037))))))
 (let (($x22366 (not (and $x15110 (not (and $x24002 (not (and (not $x24213) (not $x23330)))))))))
 (let (($x5650 (not $x20383)))
 (let (($x14679 (and (not (and $x5650 $x22366)) (not (and $x20383 (not (and $x15110 (not (and $x24002 $x24213)))))))))
 (let (($x39371 (not (and $x21083 (not (and $x9610 (not (and $x8191 (not (and $x12967 $x14679))))))))))
 (let (($x19383 (not (and $x18135 (not (and $x16632 (and (not (and (not $x21083) $x22366)) $x39371)))))))
 (let (($x11965 (not $x19882)))
 (let (($x12770 (not (and $x5671 (<= ?x21994 723.0)))))
 (let (($x7954 (and $x12770 (not (and $x5671 $x5650)))))
 (let ((?x1382 (+ ?x10289 (* (/ 1.0 40.0) ?x10042))))
 (let (($x22736 (<= ?x1382 (/ 823.0 6.0))))
 (let (($x14668 (not $x22736)))
 (let (($x24264 (<= ?x1382 133.0)))
 (let (($x17754 (not $x24264)))
 (let (($x8524 (not (and $x24264 (not (and $x20383 $x12770))))))
 (let (($x13512 (<= ?x1382 (/ 650.0 3.0))))
 (let (($x30681 (not (and $x13512 (not (and $x8524 (not (and $x17754 (not (and $x14668 $x7954))))))))))
 (let (($x30655 (not (and (not $x13512) (not (and (not (<= ?x21994 723.0)) (and $x5671 $x20383)))))))
 (let (($x9842 (<= ?x1382 (/ 261.0 2.0))))
 (let (($x11225 (not $x9842)))
 (let (($x7608 (not (and $x19882 (not (and $x11225 (and $x30655 $x30681)))))))
 (let (($x15045 (not (and $x7608 (not (and $x11965 (not (and $x19383 (not (and $x10027 $x18857))))))))))
 (let (($x11588 (not $x3470)))
 (let (($x17572 (and $x10619 (not (and (not (and $x11588 $x15045)) (not (and $x3470 (and $x22754 $x3257))))))))
 (let ((?x10766 (+ ?x10289 ?x23943)))
 (let (($x16378 (<= ?x10766 (/ (- 185.0) 2.0))))
 (let (($x25324 (not (and (not (<= ?x10766 (/ (- 193.0) 2.0))) $x16378))))
 (let (($x9087 (<= ?x1188 (- 30.0))))
 (let (($x21077 (not $x9087)))
 (let (($x15899 (not (and (not (and (not (<= ?x10289 30.0)) $x25324)) (not (and $x21077 $x25324))))))
 (let ((?x27428 (+ ?x10289 (* (/ ?x26295 80.0) ?x10042))))
 (let (($x11857 (<= ?x27428 (/ (- 161.0) 4.0))))
 (let (($x13326 (and (not (and (not (<= ?x1188 (- 20.0))) $x25324)) (not (and $x9087 $x25324)))))
 (let (($x6237 (<= ?x27428 (/ (- 145.0) 4.0))))
 (let (($x7283 (not $x11857)))
 (let (($x25188 (and $x7283 (not (and (not (and (not $x6237) $x25324)) (not (and $x6237 (not $x13326))))))))
 (let (($x29223 (and (not (and $x3083 (not (and (not $x25188) (not (and $x11857 $x25324)))))) (not (and $x870 (and $x19882 $x15899))))))
 (let (($x8676 (not $x10619)))
 (let (($x4084 (and $x7081 (not (and $x16051 (not (and (not (and $x8676 (not $x29223))) (not $x17572))))))))
 (let (($x24431 (<= ?x7850 (- 4100.0))))
 (let (($x25330 (not (and $x24431 (and $x19882 (not (and $x18135 (and $x9087 (<= ?x10289 30.0)))))))))
 (let (($x13856 (not (and (not $x24431) $x19882))))
 (let (($x8601 (not bool.b24)))
 (let (($x18594 (and (not (and $x8601 (not (and $x3257 (not (and $x1596 (and $x19882 $x25324))))))) (not (and bool.b24 (not (and $x13856 $x25330)))))))
 (let (($x14242 (not (and (not (<= ?x21994 723.0)) (and $x20383 (not (and $x24002 (not $x16378))))))))
 (let (($x11498 (not (and (not (and $x11965 $x14242)) (not (and $x19882 (not (and $x20383 $x16378))))))))
 (let (($x9546 (not $x24431)))
 (let (($x14990 (and $x9859 (not (and (not (and $x9546 $x11498)) (not (and $x24431 (and $x11965 $x22754))))))))
 (let (($x4838 (not (and $x1596 (and $x19882 $x25324)))))
 (let (($x12062 (not (and (not (<= ?x21994 723.0)) (not (and $x20383 (not (and $x13186 $x25324))))))))
 (let (($x1510 (not (and $x12062 (not (and (<= ?x21994 723.0) $x25324))))))
 (let (($x6717 (and $x17754 (not (and (not (and $x14668 (not $x7954))) (not (and $x22736 $x1510)))))))
 (let (($x19250 (and $x11225 (not (and $x30655 (not (and $x13512 (not (and $x8524 (not $x6717))))))))))
 (let (($x4098 (and (not (and $x12967 (not (and $x20383 (not (and $x5671 $x25324)))))) (not (and $x31621 $x25324)))))
 (let (($x27356 (not (and $x16632 (not (and $x21083 (and $x9610 (not (and $x8191 (not $x4098))))))))))
 (let (($x15185 (and (not (and $x11965 (not (and $x27356 (not (and $x1407 $x25324)))))) (not (and $x19882 (not (and (not $x19250) (not (and $x9842 $x1510)))))))))
 (let (($x24904 (and $x1596 (not (and (not (and $x9546 $x25324)) (not (and $x24431 (not $x15185))))))))
 (let (($x7449 (and (not (and $x9859 (not (and $x24431 (and $x7608 (not (and $x11965 $x18857))))))) (not $x24904))))
 (let (($x3309 (and (not (and $x11588 (not $x7449))) (not (and $x3470 (not (and $x4838 (not $x14990))))))))
 (let (($x39324 (and $x3083 (not (and (not (and bool.b24 $x16105)) (not (and $x8601 (not $x3309))))))))
 (let (($x7538 (and (<= (+ ?x10289 (* (/ ?x26295 20.0) ?x10042)) (- 205.0)) (not (<= (+ ?x10289 (* (/ ?x26295 20.0) ?x10042)) (- 209.0))))))
 (let (($x19631 (not (<= ?x1188 (- 20.0)))))
 (let (($x12190 (not (and $x19631 (not $x7538)))))
 (let (($x18119 (<= ?x10289 33.0)))
 (let (($x32216 (<= ?x10289 30.0)))
 (let (($x2544 (and $x13856 (not (and $x24431 (and $x19882 (not (and $x32216 (and $x18119 $x12190)))))))))
 (let (($x14241 (and $x19882 (not (and $x32216 (and $x18119 (not (and $x21077 (not (and $x19631 $x7538))))))))))
 (let (($x26007 (not $x6237)))
 (let (($x16256 (and (not (and $x26007 (not (and $x13856 (not (and $x24431 $x14241)))))) (not (and $x6237 (not $x2544))))))
 (let (($x1267 (and (not (and $x7283 (not (and $x6237 (and $x24431 (and $x21077 $x12190)))))) (not (and $x11857 (not (and $x19631 $x7538)))))))
 (let (($x4482 (and $x8676 (not (and (not (and $x3083 (not $x1267))) (not (and $x870 (not $x16256))))))))
 (let (($x27346 (and (not $x4482) (not (and $x10619 (not (and (not $x39324) (not (and $x870 (not $x18594))))))))))
 (let (($x38996 (and (not (and $x16051 (not (and $x870 (not (<= ?x21994 723.0)))))) (not (and bool.b17 (not $x27346))))))
 (let (($x19874 (not (and (not (and $x5418 (not $x38996))) (not (and bool.b18 (not $x4084)))))))
 (let (($x30503 (not bool.b19)))
 (let (($x18789 (not bool.b20)))
 (let (($x32022 (and $x18789 (not (and (not (and $x30503 $x19874)) (not (and bool.b19 (not $x18741))))))))
 (let (($x451 (and (not (and bool.b20 (not (and $x870 (not (<= ?x21994 723.0)))))) (not $x32022))))
 (let (($x17321 (not bool.b23)))
 (let (($x39285 (and (not (and bool.b23 (not (and $x870 (not (<= ?x21994 723.0)))))) (not (and $x17321 (not $x451))))))
 (let (($x850 (not bool.b22)))
 (let (($x14891 (and (not (and bool.b22 (not (and $x870 (not (<= ?x21994 723.0)))))) (not (and $x850 (not $x39285))))))
 (let (($x9761 (not bool.b21)))
 (let (($x15772 (and (not (and bool.b21 (and $x870 (not (<= ?x21994 723.0))))) (not (and $x9761 $x14891)))))
 (let (($x6361 (exists ((?lambdaprime Real) )(! (let ((?x12267 (* 40.0 ?lambdaprime)))
 (let ((?x10042 (+ x4 ?x12267)))
 (let ((?x26295 (- 1.0)))
 (let ((?x7850 (* ?x26295 ?x10042)))
 (let (($x10027 (<= ?x7850 (- 4910.0))))
 (let (($x18135 (not $x10027)))
 (let (($x19631 (not (<= (* ?x26295 (+ x3 (* 1.0 ?lambdaprime))) (- 20.0)))))
 (let (($x6428 (and (not (and bool.b17 (not (and $x19631 (not (<= ?x7850 (- 4100.0))))))) (not (and bool.b18 (not (and $x19631 (not (<= ?x7850 (- 4500.0))))))))))
 (and (and (<= 0.0 ?lambdaprime) (<= ?lambdaprime ?lambda)) (not (and $x6428 (not (and bool.b19 (not (and $x19631 $x18135))))))))))))))) :qid k!25))
 ))
 (or (or $x6361 (< ?lambda 0.0)) $x15772))))))))))))))))))))))))))))))))))))))))))))))))))))))))))))))))))))))))))))))))))))))))))))))))))))))))))))))))))))))))))))))))))))))))
 )
(check-sat)
